c 
c G(n,p) graph
c graph gen seed     : 7991
c number of vertices : 50
c max number of edges: 1225
c edge probability   : 0.400000
c data structure     : sparse
c
c           Graph Stats
c number of vertices  : 50
c nonisolated vertices: 50
c number of edges     : 479
c edge density        : 0.391020
c max degree          : 27
c avg degree          : 19.16
c min degree          : 11
p col 50 479
e 1 50
e 1 46
e 1 44
e 1 43
e 1 42
e 1 40
e 1 38
e 1 35
e 1 34
e 1 32
e 1 30
e 1 29
e 1 27
e 1 23
e 1 21
e 1 17
e 1 15
e 1 12
e 1 11
e 1 7
e 1 6
e 1 2
e 2 49
e 2 48
e 2 45
e 2 44
e 2 42
e 2 41
e 2 39
e 2 36
e 2 32
e 2 31
e 2 29
e 2 27
e 2 25
e 2 21
e 2 19
e 2 18
e 2 17
e 2 14
e 2 10
e 2 4
e 2 3
e 3 49
e 3 43
e 3 42
e 3 39
e 3 38
e 3 37
e 3 36
e 3 34
e 3 29
e 3 28
e 3 27
e 3 26
e 3 25
e 3 24
e 3 22
e 3 17
e 3 16
e 3 11
e 3 10
e 3 9
e 3 8
e 3 7
e 3 6
e 4 48
e 4 47
e 4 46
e 4 44
e 4 43
e 4 33
e 4 25
e 4 23
e 4 20
e 4 15
e 4 13
e 4 9
e 4 8
e 5 50
e 5 47
e 5 46
e 5 43
e 5 41
e 5 40
e 5 37
e 5 36
e 5 34
e 5 32
e 5 30
e 5 27
e 5 25
e 5 20
e 5 14
e 5 13
e 5 12
e 5 10
e 5 7
e 5 6
e 6 50
e 6 49
e 6 48
e 6 47
e 6 46
e 6 43
e 6 38
e 6 35
e 6 34
e 6 32
e 6 30
e 6 27
e 6 24
e 6 23
e 6 22
e 6 21
e 6 16
e 6 13
e 6 11
e 6 7
e 7 50
e 7 47
e 7 46
e 7 41
e 7 36
e 7 35
e 7 33
e 7 32
e 7 31
e 7 28
e 7 27
e 7 25
e 7 23
e 7 22
e 7 19
e 7 18
e 7 15
e 7 12
e 7 9
e 7 8
e 8 50
e 8 46
e 8 44
e 8 38
e 8 37
e 8 35
e 8 34
e 8 32
e 8 30
e 8 28
e 8 23
e 8 21
e 8 18
e 8 17
e 8 15
e 8 13
e 8 12
e 8 11
e 8 10
e 9 48
e 9 47
e 9 46
e 9 45
e 9 43
e 9 42
e 9 41
e 9 39
e 9 38
e 9 33
e 9 22
e 9 17
e 9 16
e 9 13
e 9 12
e 9 11
e 10 50
e 10 48
e 10 45
e 10 38
e 10 37
e 10 36
e 10 35
e 10 34
e 10 30
e 10 24
e 10 18
e 10 17
e 10 15
e 10 13
e 10 11
e 11 50
e 11 49
e 11 42
e 11 38
e 11 37
e 11 36
e 11 35
e 11 33
e 11 29
e 11 28
e 11 24
e 11 20
e 11 18
e 11 15
e 11 14
e 11 12
e 12 49
e 12 47
e 12 45
e 12 42
e 12 38
e 12 37
e 12 36
e 12 31
e 12 28
e 12 27
e 12 23
e 12 14
e 13 48
e 13 46
e 13 45
e 13 43
e 13 42
e 13 40
e 13 37
e 13 34
e 13 31
e 13 29
e 13 26
e 13 23
e 13 22
e 13 21
e 13 20
e 13 18
e 13 16
e 13 15
e 13 14
e 14 48
e 14 46
e 14 41
e 14 38
e 14 30
e 14 29
e 14 28
e 14 23
e 14 17
e 14 16
e 14 15
e 15 48
e 15 45
e 15 39
e 15 38
e 15 37
e 15 34
e 15 31
e 15 28
e 15 25
e 15 20
e 15 19
e 15 18
e 15 17
e 16 50
e 16 48
e 16 46
e 16 43
e 16 35
e 16 32
e 16 29
e 16 24
e 16 23
e 16 22
e 16 21
e 16 18
e 17 47
e 17 46
e 17 44
e 17 38
e 17 36
e 17 35
e 17 30
e 17 28
e 17 25
e 17 24
e 17 22
e 17 20
e 18 50
e 18 48
e 18 47
e 18 35
e 18 32
e 18 30
e 18 27
e 18 26
e 18 25
e 18 24
e 18 21
e 18 20
e 19 48
e 19 47
e 19 45
e 19 42
e 19 41
e 19 40
e 19 35
e 19 28
e 19 27
e 19 26
e 19 24
e 19 23
e 19 22
e 20 47
e 20 46
e 20 45
e 20 41
e 20 38
e 20 35
e 20 27
e 20 24
e 20 23
e 20 22
e 20 21
e 21 47
e 21 44
e 21 43
e 21 39
e 21 37
e 21 35
e 21 31
e 21 30
e 21 29
e 21 28
e 21 26
e 21 24
e 21 22
e 22 50
e 22 49
e 22 36
e 22 32
e 22 31
e 22 27
e 22 25
e 22 23
e 23 44
e 23 42
e 23 39
e 23 38
e 23 34
e 23 33
e 23 30
e 23 29
e 23 27
e 23 25
e 24 50
e 24 49
e 24 48
e 24 46
e 24 44
e 24 43
e 24 42
e 24 41
e 24 40
e 24 28
e 24 25
e 25 46
e 25 43
e 25 41
e 25 40
e 25 36
e 25 35
e 25 32
e 25 31
e 25 30
e 25 29
e 25 27
e 25 26
e 26 50
e 26 49
e 26 48
e 26 44
e 26 40
e 26 38
e 26 37
e 26 32
e 26 29
e 27 49
e 27 48
e 27 47
e 27 46
e 27 43
e 27 42
e 27 41
e 27 40
e 27 39
e 27 35
e 28 50
e 28 48
e 28 42
e 28 41
e 28 40
e 28 38
e 28 34
e 28 33
e 28 31
e 28 30
e 29 50
e 29 46
e 29 42
e 29 33
e 29 32
e 30 47
e 30 46
e 30 44
e 30 42
e 30 39
e 30 38
e 30 36
e 30 34
e 30 31
e 31 50
e 31 46
e 31 43
e 31 42
e 31 35
e 32 42
e 32 37
e 32 34
e 33 47
e 33 43
e 33 41
e 33 36
e 34 49
e 34 45
e 34 44
e 34 43
e 34 42
e 34 38
e 35 50
e 35 49
e 35 46
e 35 40
e 35 39
e 35 38
e 36 50
e 36 47
e 36 42
e 36 41
e 36 38
e 37 50
e 37 48
e 37 44
e 37 39
e 37 38
e 38 50
e 38 48
e 38 47
e 38 46
e 38 45
e 38 44
e 38 43
e 39 50
e 39 46
e 39 45
e 39 41
e 40 43
e 41 50
e 41 45
e 41 43
e 41 42
e 42 49
e 42 45
e 43 50
e 43 45
e 44 49
e 44 48
e 44 47
e 44 46
e 45 50
e 47 50
e 47 49
e 48 49
